
Log started (V11.0.0) Sun Apr 13 17:01:03 2008

Tried aggregator 1 time.
Reduced MIP has 520 rows, 10001 columns, and 20020 nonzeros.
Presolve time =    0.06 sec.
Clique table members: 500.
MIP emphasis: balance optimality and feasibility.
MIP search method: dynamic search.
Parallel mode: none, using 1 thread.
Root relaxation solution time =    0.28 sec.

        Nodes                                         Cuts/
   Node  Left     Objective  IInf  Best Integer     Best Node    ItCnt     Gap

*     0+    0                        24587.0000      136.2571      790   99.45%
*     0+    0                          146.0000      136.2571      790    6.67%
      0     0      137.0000    40      146.0000      Fract: 9      818    6.16%
*     0+    0                          145.0000      137.0000      818    5.52%
      0     0      137.0000    42      145.0000     Covers: 1      819    5.52%
      0     0      137.0000    41      145.0000     Covers: 1      825    5.52%
*     0+    0                          142.0000      137.0000      825    3.52%
*     0+    0                          141.0000      137.0000      825    2.84%
      0     2      137.0000    41      141.0000      137.0000      825    2.84%
*    40+   34                          140.0000      137.0000     2117    2.14%
    100    80      139.0000    34      140.0000      137.0000     4504    2.14%
    200   136      137.0000    41      140.0000      137.0000     9523    2.14%
    300   216      139.0000    38      140.0000      137.0000    12822    2.14%
    400   272    infeasible            140.0000      137.0000    15412    2.14%
*   450+  160                          139.0000      137.0000    16588    1.44%
    500   187      138.0000    36      139.0000      137.0000    18933    1.44%
    600   235      138.0000    31      139.0000      137.0000    24537    1.44%
    700   236      138.0000    24      139.0000      137.0000    29808    1.44%
    800   240      138.0000    30      139.0000      137.0000    35140    1.44%
    900   259      137.0000    46      139.0000      137.0000    40536    1.44%
   1000   342      138.0000    40      139.0000      137.0000    45619    1.44%
Elapsed time =  35.50 sec. (tree size =  2.78 MB, solutions = 7)
   1100   419      138.0000    33      139.0000      137.0000    50873    1.44%
*  1161+  217                          138.0000      137.0000    54414    0.72%
   1200   255      137.0000    50      138.0000      137.0000    55735    0.72%
   1300   333      137.0000    58      138.0000      137.0000    61588    0.72%
   1400   407      137.0000    60      138.0000      137.0000    70345    0.72%
   1500   476      137.0000    61      138.0000      137.0000    78667    0.72%
   1600   550      137.0000    98      138.0000      137.0000    89720    0.72%
   1700   636      137.0000    69      138.0000      137.0000    96942    0.72%
   1800   692      137.0000    77      138.0000      137.0000   113853    0.72%
   1900   770      137.0000    66      138.0000      137.0000   123819    0.72%
   2000   834      137.0000    96      138.0000      137.0000   138451    0.72%
Elapsed time =  80.78 sec. (tree size =  8.87 MB, solutions = 8)
   2100   914      137.0000    88      138.0000      137.0000   150779    0.72%
   2200  1000      137.0000    79      138.0000      137.0000   159968    0.72%
   2300  1072      137.0000    88      138.0000      137.0000   173824    0.72%
   2400  1148      137.0000   119      138.0000      137.0000   193942    0.72%
   2500  1210    infeasible            138.0000      137.0000   214823    0.72%
   2600  1288      137.0000    90      138.0000      137.0000   229017    0.72%
   2700  1338      137.0000   116      138.0000      137.0000   254576    0.72%
   2800  1400    infeasible            138.0000      137.0000   275481    0.72%
   2900  1478      137.0000    88      138.0000      137.0000   291369    0.72%
   3000  1532      137.0000    96      138.0000      137.0000   324375    0.72%
Elapsed time = 200.42 sec. (tree size = 20.90 MB, solutions = 8)
   3100  1577      137.0000   124      138.0000      137.0000   362137    0.72%
   3200  1653    infeasible            138.0000      137.0000   376894    0.72%
   3300  1683      137.0000   124      138.0000      137.0000   419302    0.72%
   3400  1723    infeasible            138.0000      137.0000   454476    0.72%
   3500  1751      137.0000    99      138.0000      137.0000   502711    0.72%
   3600  1813      137.0000   125      138.0000      137.0000   529584    0.72%
   3700  1873      137.0000    86      138.0000      137.0000   555861    0.72%
   3800  1895    infeasible            138.0000      137.0000   599923    0.72%
   3900  1950      137.0000   120      138.0000      137.0000   627839    0.72%
   4000  1994      137.0000   140      138.0000      137.0000   663902    0.72%
Elapsed time = 485.63 sec. (tree size = 32.29 MB, solutions = 8)
   4100  2020    infeasible            138.0000      137.0000   712427    0.72%
   4200  2058      137.0000   134      138.0000      137.0000   752825    0.72%
   4300  2080      137.0000   140      138.0000      137.0000   801823    0.72%
   4400  2096      137.0000   145      138.0000      137.0000   861674    0.72%
   4500  2156      137.0000    82      138.0000      137.0000   889204    0.72%
   4600  2160    infeasible            138.0000      137.0000   959448    0.72%
   4700  2194      137.0000   152      138.0000      137.0000  1013275    0.72%
   4800  2228    infeasible            138.0000      137.0000  1053607    0.72%
   4900  2294      137.0000   125      138.0000      137.0000  1073700    0.72%
   5000  2348    infeasible            138.0000      137.0000  1110006    0.72%
Elapsed time = 933.25 sec. (tree size = 43.91 MB, solutions = 8)
   5100  2402      137.0000    98      138.0000      137.0000  1142605    0.72%
   5200  2406    infeasible            138.0000      137.0000  1209052    0.72%
   5300  2468      137.0000   132      138.0000      137.0000  1236498    0.72%
   5400  2502      137.0000   103      138.0000      137.0000  1281921    0.72%
   5500  2552      137.0000   102      138.0000      137.0000  1315153    0.72%
   5600  2604      137.0000   102      138.0000      137.0000  1349443    0.72%
   5700  2648      137.0000   158      138.0000      137.0000  1382799    0.72%
   5800  2716      137.0000   104      138.0000      137.0000  1410891    0.72%
   5900  2782      137.0000   147      138.0000      137.0000  1435172    0.72%
   6000  2806      137.0000   126      138.0000      137.0000  1487216    0.72%
Elapsed time = 1367.92 sec. (tree size = 58.98 MB, solutions = 8)
   6100  2868    infeasible            138.0000      137.0000  1511084    0.72%
   6200  2886      137.0000   122      138.0000      137.0000  1567177    0.72%
   6300  2932      137.0000   142      138.0000      137.0000  1601417    0.72%
   6400  2994      137.0000   146      138.0000      137.0000  1632323    0.72%
   6500  3032      137.0000   134      138.0000      137.0000  1675606    0.72%
   6600  3094    infeasible            138.0000      137.0000  1700797    0.72%
   6700  3166      137.0000   128      138.0000      137.0000  1731071    0.72%
   6800  3220      137.0000   115      138.0000      137.0000  1764188    0.72%
   6900  3260      137.0000   105      138.0000      137.0000  1803479    0.72%
   7000  3312    infeasible            138.0000      137.0000  1836778    0.72%
Elapsed time = 1806.23 sec. (tree size = 76.18 MB, solutions = 8)
   7100  3350    infeasible            138.0000      137.0000  1877644    0.72%
   7200  3402      137.0000   156      138.0000      137.0000  1912473    0.72%
   7300  3460      137.0000   133      138.0000      137.0000  1939144    0.72%
   7400  3550      137.0000   155      138.0000      137.0000  1951889    0.72%
   7500  3584      137.0000   111      138.0000      137.0000  1998356    0.72%
   7600  3610    infeasible            138.0000      137.0000  2052195    0.72%
   7700  3638      137.0000   139      138.0000      137.0000  2098790    0.72%
   7800  3660    infeasible            138.0000      137.0000  2150198    0.72%
   7900  3692      137.0000   134      138.0000      137.0000  2201064    0.72%
   8000  3724      137.0000    97      138.0000      137.0000  2244512    0.72%
Elapsed time = 2342.95 sec. (tree size = 92.32 MB, solutions = 8)
   8100  3776      137.0000   125      138.0000      137.0000  2278664    0.72%
   8200  3814      137.0000   130      138.0000      137.0000  2320069    0.72%
   8300  3846      137.0000   170      138.0000      137.0000  2363499    0.72%
   8400  3898      137.0000   138      138.0000      137.0000  2399278    0.72%
   8500  3952      137.0000   144      138.0000      137.0000  2425927    0.72%
   8600  3986      137.0000   121      138.0000      137.0000  2476837    0.72%
   8700  4000      137.0000    83      138.0000      137.0000  2524430    0.72%
   8800  4066    infeasible            138.0000      137.0000  2550005    0.72%
   8900  4096      137.0000   155      138.0000      137.0000  2591808    0.72%
   9000  4148      137.0000   153      138.0000      137.0000  2626065    0.72%
Elapsed time = 2893.91 sec. (tree size = 109.87 MB, solutions = 8)
   9100  4196      137.0000   134      138.0000      137.0000  2665811    0.72%
   9200  4232    infeasible            138.0000      137.0000  2713626    0.72%
   9300  4286      137.0000   158      138.0000      137.0000  2746298    0.72%
   9400  4310    infeasible            138.0000      137.0000  2794262    0.72%
   9500  4372      137.0000   145      138.0000      137.0000  2817855    0.72%
   9600  4424      137.0000   151      138.0000      137.0000  2850510    0.72%
   9700  4448      137.0000   146      138.0000      137.0000  2898057    0.72%
   9800  4514    infeasible            138.0000      137.0000  2923622    0.72%
   9900  4574      137.0000   151      138.0000      137.0000  2953181    0.72%
  10000  4632      137.0000    79      138.0000      137.0000  2978770    0.72%
Elapsed time = 3443.09 sec. (tree size = 129.94 MB, solutions = 8)
Nodefile size =  2.96 MB (2.87 MB after compression)
  10100  4672      137.0000   150      138.0000      137.0000  3018226    0.72%
  10200  4708      137.0000   145      138.0000      137.0000  3070351    0.72%
  10300  4762      137.0000   157      138.0000      137.0000  3103360    0.72%
* 10331     0      integral     0      137.0000      137.0000  3109886    0.00%

Cover cuts applied:  2561
Mixed integer rounding cuts applied:  24
Gomory fractional cuts applied:  15

Solution pool: 9 solutions saved.

MIP - Integer optimal solution:  Objective = 1.3700000000e+002
Solution time = 3639.98 sec.  Iterations = 3109886  Nodes = 10332


Incumbent solution
Variable Name           Solution Value
Cmax                        137.000000
X_1_19                        1.000000
X_2_7                         1.000000
X_3_17                        1.000000
X_4_19                        1.000000
X_5_17                        1.000000
X_6_19                        1.000000
X_7_16                        1.000000
X_8_1                         1.000000
X_9_4                         1.000000
X_10_7                        1.000000
X_11_4                        1.000000
X_12_13                       1.000000
X_13_14                       1.000000
X_14_4                        1.000000
X_15_8                        1.000000
X_16_10                       1.000000
X_17_14                       1.000000
X_18_9                        1.000000
X_19_7                        1.000000
X_20_13                       1.000000
X_21_2                        1.000000
X_22_17                       1.000000
X_23_13                       1.000000
X_24_15                       1.000000
X_25_4                        1.000000
X_26_3                        1.000000
X_27_6                        1.000000
X_28_17                       1.000000
X_29_11                       1.000000
X_30_9                        1.000000
X_31_10                       1.000000
X_32_10                       1.000000
X_33_2                        1.000000
X_34_13                       1.000000
X_35_13                       1.000000
X_36_6                        1.000000
X_37_9                        1.000000
X_38_2                        1.000000
X_39_1                        1.000000
X_40_19                       1.000000
X_41_9                        1.000000
X_42_19                       1.000000
X_43_5                        1.000000
X_44_19                       1.000000
X_45_15                       1.000000
X_46_15                       1.000000
X_47_12                       1.000000
X_48_4                        1.000000
X_49_13                       1.000000
X_50_2                        1.000000
X_51_9                        1.000000
X_52_11                       1.000000
X_53_13                       1.000000
X_54_18                       1.000000
X_55_12                       1.000000
X_56_14                       1.000000
X_57_3                        1.000000
X_58_4                        1.000000
X_59_12                       1.000000
X_60_14                       1.000000
X_61_15                       1.000000
X_62_5                        1.000000
X_63_14                       1.000000
X_64_14                       1.000000
X_65_18                       1.000000
X_66_10                       1.000000
X_67_20                       1.000000
X_68_5                        1.000000
X_69_1                        1.000000
X_70_4                        1.000000
X_71_2                        1.000000
X_72_19                       1.000000
X_73_1                        1.000000
X_74_17                       1.000000
X_75_14                       1.000000
X_76_7                        1.000000
X_77_6                        1.000000
X_78_20                       1.000000
X_79_12                       1.000000
X_80_13                       1.000000
X_81_12                       1.000000
X_82_15                       1.000000
X_83_17                       1.000000
X_84_7                        1.000000
X_85_15                       1.000000
X_86_13                       1.000000
X_87_15                       1.000000
X_88_16                       1.000000
X_89_20                       1.000000
X_90_8                        1.000000
X_91_3                        1.000000
X_92_5                        1.000000
X_93_2                        1.000000
X_94_13                       1.000000
X_95_1                        1.000000
X_96_16                       1.000000
X_97_2                        1.000000
X_98_14                       1.000000
X_99_19                       1.000000
X_100_3                       1.000000
X_101_12                      1.000000
X_102_7                       1.000000
X_103_20                      1.000000
X_104_17                      1.000000
X_105_5                       1.000000
X_106_4                       1.000000
X_107_12                      1.000000
X_108_11                      1.000000
X_109_19                      1.000000
X_110_4                       1.000000
X_111_4                       1.000000
X_112_18                      1.000000
X_113_9                       1.000000
X_114_14                      1.000000
X_115_4                       1.000000
X_116_6                       1.000000
X_117_20                      1.000000
X_118_15                      1.000000
X_119_18                      1.000000
X_120_4                       1.000000
X_121_16                      1.000000
X_122_5                       1.000000
X_123_8                       1.000000
X_124_20                      1.000000
X_125_18                      1.000000
X_126_1                       1.000000
X_127_20                      1.000000
X_128_6                       1.000000
X_129_10                      1.000000
X_130_16                      1.000000
X_131_16                      1.000000
X_132_7                       1.000000
X_133_1                       1.000000
X_134_9                       1.000000
X_135_9                       1.000000
X_136_11                      1.000000
X_137_2                       1.000000
X_138_6                       1.000000
X_139_3                       1.000000
X_140_6                       1.000000
X_141_19                      1.000000
X_142_8                       1.000000
X_143_10                      1.000000
X_144_17                      1.000000
X_145_11                      1.000000
X_146_14                      1.000000
X_147_14                      1.000000
X_148_12                      1.000000
X_149_6                       1.000000
X_150_13                      1.000000
X_151_17                      1.000000
X_152_4                       1.000000
X_153_2                       1.000000
X_154_10                      1.000000
X_155_4                       1.000000
X_156_10                      1.000000
X_157_3                       1.000000
X_158_13                      1.000000
X_159_11                      1.000000
X_160_6                       1.000000
X_161_16                      1.000000
X_162_4                       1.000000
X_163_2                       1.000000
X_164_7                       1.000000
X_165_16                      1.000000
X_166_12                      1.000000
X_167_8                       1.000000
X_168_15                      1.000000
X_169_20                      1.000000
X_170_12                      1.000000
X_171_7                       1.000000
X_172_12                      1.000000
X_173_16                      1.000000
X_174_7                       1.000000
X_175_2                       1.000000
X_176_8                       1.000000
X_177_8                       1.000000
X_178_2                       1.000000
X_179_9                       1.000000
X_180_19                      1.000000
X_181_19                      1.000000
X_182_8                       1.000000
X_183_6                       1.000000
X_184_18                      1.000000
X_185_10                      1.000000
X_186_20                      1.000000
X_187_15                      1.000000
X_188_13                      1.000000
X_189_1                       1.000000
X_190_20                      1.000000
X_191_20                      1.000000
X_192_6                       1.000000
X_193_9                       1.000000
X_194_16                      1.000000
X_195_8                       1.000000
X_196_20                      1.000000
X_197_18                      1.000000
X_198_9                       1.000000
X_199_7                       1.000000
X_200_15                      1.000000
X_201_7                       1.000000
X_202_3                       1.000000
X_203_10                      1.000000
X_204_14                      1.000000
X_205_12                      1.000000
X_206_18                      1.000000
X_207_17                      1.000000
X_208_4                       1.000000
X_209_6                       1.000000
X_210_6                       1.000000
X_211_16                      1.000000
X_212_13                      1.000000
X_213_18                      1.000000
X_214_10                      1.000000
X_215_3                       1.000000
X_216_10                      1.000000
X_217_18                      1.000000
X_218_12                      1.000000
X_219_6                       1.000000
X_220_6                       1.000000
X_221_2                       1.000000
X_222_6                       1.000000
X_223_12                      1.000000
X_224_17                      1.000000
X_225_14                      1.000000
X_226_7                       1.000000
X_227_3                       1.000000
X_228_6                       1.000000
X_229_18                      1.000000
X_230_20                      1.000000
X_231_10                      1.000000
X_232_5                       1.000000
X_233_3                       1.000000
X_234_9                       1.000000
X_235_4                       1.000000
X_236_1                       1.000000
X_237_14                      1.000000
X_238_8                       1.000000
X_239_14                      1.000000
X_240_2                       1.000000
X_241_1                       1.000000
X_242_17                      1.000000
X_243_1                       1.000000
X_244_8                       1.000000
X_245_15                      1.000000
X_246_20                      1.000000
X_247_8                       1.000000
X_248_7                       1.000000
X_249_14                      1.000000
X_250_15                      1.000000
X_251_8                       1.000000
X_252_2                       1.000000
X_253_13                      1.000000
X_254_1                       1.000000
X_255_11                      1.000000
X_256_18                      1.000000
X_257_15                      1.000000
X_258_16                      1.000000
X_259_3                       1.000000
X_260_17                      1.000000
X_261_20                      1.000000
X_262_4                       1.000000
X_263_15                      1.000000
X_264_4                       1.000000
X_265_12                      1.000000
X_266_12                      1.000000
X_267_7                       1.000000
X_268_1                       1.000000
X_269_6                       1.000000
X_270_9                       1.000000
X_271_19                      1.000000
X_272_15                      1.000000
X_273_1                       1.000000
X_274_3                       1.000000
X_275_10                      1.000000
X_276_12                      1.000000
X_277_19                      1.000000
X_278_17                      1.000000
X_279_19                      1.000000
X_280_14                      1.000000
X_281_5                       1.000000
X_282_8                       1.000000
X_283_14                      1.000000
X_284_9                       1.000000
X_285_4                       1.000000
X_286_20                      1.000000
X_287_1                       1.000000
X_288_13                      1.000000
X_289_1                       1.000000
X_290_4                       1.000000
X_291_4                       1.000000
X_292_3                       1.000000
X_293_19                      1.000000
X_294_16                      1.000000
X_295_11                      1.000000
X_296_13                      1.000000
X_297_19                      1.000000
X_298_5                       1.000000
X_299_16                      1.000000
X_300_4                       1.000000
X_301_7                       1.000000
X_302_18                      1.000000
X_303_2                       1.000000
X_304_3                       1.000000
X_305_20                      1.000000
X_306_1                       1.000000
X_307_18                      1.000000
X_308_16                      1.000000
X_309_2                       1.000000
X_310_16                      1.000000
X_311_14                      1.000000
X_312_1                       1.000000
X_313_2                       1.000000
X_314_7                       1.000000
X_315_19                      1.000000
X_316_15                      1.000000
X_317_13                      1.000000
X_318_10                      1.000000
X_319_20                      1.000000
X_320_20                      1.000000
X_321_20                      1.000000
X_322_17                      1.000000
X_323_10                      1.000000
X_324_15                      1.000000
X_325_15                      1.000000
X_326_8                       1.000000
X_327_12                      1.000000
X_328_3                       1.000000
X_329_10                      1.000000
X_330_1                       1.000000
X_331_4                       1.000000
X_332_6                       1.000000
X_333_2                       1.000000
X_334_5                       1.000000
X_335_10                      1.000000
X_336_3                       1.000000
X_337_9                       1.000000
X_338_12                      1.000000
X_339_3                       1.000000
X_340_2                       1.000000
X_341_3                       1.000000
X_342_15                      1.000000
X_343_6                       1.000000
X_344_5                       1.000000
X_345_17                      1.000000
X_346_4                       1.000000
X_347_6                       1.000000
X_348_20                      1.000000
X_349_19                      1.000000
X_350_19                      1.000000
X_351_1                       1.000000
X_352_1                       1.000000
X_353_18                      1.000000
X_354_11                      1.000000
X_355_4                       1.000000
X_356_13                      1.000000
X_357_14                      1.000000
X_358_3                       1.000000
X_359_13                      1.000000
X_360_9                       1.000000
X_361_17                      1.000000
X_362_3                       1.000000
X_363_4                       1.000000
X_364_8                       1.000000
X_365_6                       1.000000
X_366_17                      1.000000
X_367_2                       1.000000
X_368_9                       1.000000
X_369_6                       1.000000
X_370_17                      1.000000
X_371_19                      1.000000
X_372_3                       1.000000
X_373_11                      1.000000
X_374_10                      1.000000
X_375_5                       1.000000
X_376_7                       1.000000
X_377_9                       1.000000
X_378_20                      1.000000
X_379_15                      1.000000
X_380_17                      1.000000
X_381_20                      1.000000
X_382_14                      1.000000
X_383_13                      1.000000
X_384_3                       1.000000
X_385_3                       1.000000
X_386_17                      1.000000
X_387_12                      1.000000
X_388_8                       1.000000
X_389_15                      1.000000
X_390_11                      1.000000
X_391_3                       1.000000
X_392_5                       1.000000
X_393_12                      1.000000
X_394_13                      1.000000
X_395_5                       1.000000
X_396_6                       1.000000
X_397_7                       1.000000
X_398_17                      1.000000
X_399_9                       1.000000
X_400_6                       1.000000
X_401_14                      1.000000
X_402_2                       1.000000
X_403_10                      1.000000
X_404_14                      1.000000
X_405_11                      1.000000
X_406_13                      1.000000
X_407_14                      1.000000
X_408_13                      1.000000
X_409_4                       1.000000
X_410_2                       1.000000
X_411_15                      1.000000
X_412_20                      1.000000
X_413_11                      1.000000
X_414_10                      1.000000
X_415_10                      1.000000
X_416_12                      1.000000
X_417_16                      1.000000
X_418_2                       1.000000
X_419_7                       1.000000
X_420_17                      1.000000
X_421_17                      1.000000
X_422_17                      1.000000
X_423_10                      1.000000
X_424_18                      1.000000
X_425_4                       1.000000
X_426_7                       1.000000
X_427_1                       1.000000
X_428_17                      1.000000
X_429_4                       1.000000
X_430_16                      1.000000
X_431_10                      1.000000
X_432_16                      1.000000
X_433_11                      1.000000
X_434_5                       1.000000
X_435_4                       1.000000
X_436_1                       1.000000
X_437_11                      1.000000
X_438_2                       1.000000
X_439_18                      1.000000
X_440_20                      1.000000
X_441_7                       1.000000
X_442_14                      1.000000
X_443_15                      1.000000
X_444_16                      1.000000
X_445_8                       1.000000
X_446_10                      1.000000
X_447_14                      1.000000
X_448_2                       1.000000
X_449_5                       1.000000
X_450_1                       1.000000
X_451_8                       1.000000
X_452_19                      1.000000
X_453_13                      1.000000
X_454_1                       1.000000
X_455_2                       1.000000
X_456_7                       1.000000
X_457_7                       1.000000
X_458_8                       1.000000
X_459_11                      1.000000
X_460_1                       1.000000
X_461_7                       1.000000
X_462_8                       1.000000
X_463_6                       1.000000
X_464_13                      1.000000
X_465_15                      1.000000
X_466_15                      1.000000
X_467_18                      1.000000
X_468_8                       1.000000
X_469_16                      1.000000
X_470_20                      1.000000
X_471_2                       1.000000
X_472_16                      1.000000
X_473_16                      1.000000
X_474_20                      1.000000
X_475_14                      1.000000
X_476_16                      1.000000
X_477_9                       1.000000
X_478_5                       1.000000
X_479_13                      1.000000
X_480_7                       1.000000
X_481_16                      1.000000
X_482_5                       1.000000
X_483_7                       1.000000
X_484_10                      1.000000
X_485_17                      1.000000
X_486_16                      1.000000
X_487_19                      1.000000
X_488_20                      1.000000
X_489_10                      1.000000
X_490_14                      1.000000
X_491_12                      1.000000
X_492_13                      1.000000
X_493_17                      1.000000
X_494_8                       1.000000
X_495_20                      1.000000
X_496_5                       1.000000
X_497_18                      1.000000
X_498_16                      1.000000
X_499_8                       1.000000
X_500_1                       1.000000
All other variables in the range 1-10001 are 0.
